NAME : eil41-4
COMMENT : 41-city problem (Christofides/Eilon)
TYPE : CTSP
DIMENSION : 41
SALESMEN : 4
EDGE_WEIGHT_TYPE : EUC_2D
NODE_COORD_SECTION
1 42 41
2 5 25
3 32 22
4 20 26
5 17 33
6 27 23
7 62 42
8 58 27
9 58 48
10 56 37
11 61 33
12 62 63
13 52 64
14 43 67
15 37 69
16 57 58
17 17 63
18 5 64
19 16 57
20 27 68
21 8 52
22 7 38
23 31 62
24 32 39
25 25 55
26 52 33
27 12 42
28 48 28
29 42 57
30 51 31
31 30 48
32 30 40
33 21 47
34 37 52
35 49 49
36 31 32
37 52 41
38 38 46
39 40 30
40 25 32
41 45 35
CTSP_SET_SECTION
1 2 3 4 5 6 -1
2 7 8 9 10 11 -1
3 12 13 14 15 16 -1
4 17 18 19 20 21 -1
DEPOT_SECTION
1
-1
EOF
